p tw 28 196
0 1
0 2
0 8
0 9
0 7
0 12
0 15
0 4
0 13
0 10
0 16
0 26
0 3
0 11
0 5
0 17
0 24
0 20
1 2
1 3
1 4
1 15
1 14
1 24
1 5
1 9
1 16
1 19
1 21
1 20
1 8
2 14
2 18
2 13
2 19
2 16
2 20
2 4
2 22
2 23
2 24
2 11
2 10
2 15
2 7
2 9
3 4
3 17
3 19
3 26
3 5
3 22
3 13
3 15
3 20
3 11
4 7
4 15
4 13
4 6
4 12
4 19
4 11
4 9
4 22
4 14
5 6
5 7
5 9
5 16
5 22
5 17
5 12
5 15
5 11
5 10
5 14
6 7
6 9
6 16
6 8
6 14
6 12
6 10
7 8
7 15
7 13
7 9
7 14
7 12
7 20
7 16
7 25
7 11
7 22
7 27
7 17
8 9
8 13
8 14
8 24
8 18
8 27
8 10
8 26
8 19
8 21
8 16
8 20
8 17
8 15
8 12
9 14
9 16
9 24
9 25
9 12
9 22
9 21
9 13
10 11
10 12
10 21
10 22
10 13
10 15
10 26
10 16
11 12
11 14
11 18
11 16
12 13
12 14
12 21
12 20
12 17
12 27
12 19
12 23
12 22
12 15
12 24
12 26
13 14
13 19
13 22
13 24
14 18
14 24
14 21
14 22
14 16
14 15
15 16
15 17
15 20
15 22
15 27
16 17
16 20
16 25
16 26
16 27
16 19
16 21
16 18
17 19
17 18
17 23
17 27
17 22
17 26
17 21
17 25
18 23
18 25
18 26
18 27
18 19
18 20
19 24
19 27
19 26
19 23
19 20
19 21
21 22
21 25
22 23
22 26
22 27
24 27
25 26
25 27
26 27
